12
5 9
5 6
5 8
5 1
5 11
5 4
5 3
5 10
9 6
9 8
9 4
9 2
9 11
9 10
9 0
4 7
4 2
4 0
4 1
4 11
4 3
7 0
7 3
7 11
7 6
7 10
7 8
7 2
1 3
1 6
1 11
1 2
1 10
1 8
3 0
3 10
3 6
3 8
6 10
6 2
6 11
2 8
2 10
2 0
8 11
8 0
0 10
0 11
